InboundTrucks  = 12;
OutboundTrucks = 8;
InboundDoors   = 4;
OutboundDoors  = 4;
ReleaseTime    = [100,86,10,114,111,72,73,68,62,61,16,112];
UnloadTime     = [45,40,30,40,45,40,23,40,26,24,28,38];
LoadTime       = [5,9,11,8,15,11,6,9];
TransferTime   = [| 0,22,0,23,21,31,20,0 | 0,0,0,33,0,41,0,10 | 0,25,0,0,35,0,0,0 | 12,20,0,16,0,0,45,0 | 0,0,16,13,23,0,0,0 | 0,0,25,40,47,31,0,0 | 12,36,0,15,34,46,0,0 | 0,34,0,0,41,0,49,39 | 12,13,0,16,16,0,0,16 | 45,0,0,0,0,35,20,0 | 0,0,42,29,0,43,0,29 | 38,13,18,41,47,0,0,24 |];
